p cnf 27 24
12 8 1 0
-17 -27 0
-4 -26 25 -3 0
-19 6 5 0
-2 26 -13 0
24 -6 -15 0
11 -1 18 0
-20 15 0
18 6 -19 -20 -12 0
1 6 20 0
-1 2 0
19 20 -17 0
11 -4 -24 0
5 -3 4 0
23 -24 -17 25 26 0
5 -8 1 0
-17 -18 -15 3 0
15 1 0
-15 25 -26 19 -17 0
16 0
-5 -3 15 0
-20 3 0
18 19 -5 0
-4 6 0
